c preprocessed version of BN_104, 44 vertices, 657 edges
p td 44 657
1 0
9 0
5 0
15 0
19 0
1 2
1 10
1 11
1 12
1 18
1 25
1 22
1 23
9 1
5 1
13 1
8 1
15 1
17 1
19 1
21 1
24 1
2 3
2 14
5 2
13 2
8 2
15 2
17 2
21 2
24 2
3 4
5 3
13 3
15 3
21 3
24 3
5 4
13 4
15 4
21 4
24 4
5 6
5 7
5 14
5 10
5 11
9 5
13 5
8 5
15 5
17 5
19 5
21 5
24 5
6 7
8 6
15 6
17 6
21 6
24 6
8 7
15 7
17 7
21 7
24 7
8 9
8 10
8 11
8 12
13 8
8 14
8 16
8 22
8 25
8 18
8 26
8 20
15 8
17 8
19 8
21 8
24 8
9 10
9 16
9 22
9 23
9 26
13 9
15 9
17 9
19 9
21 9
24 9
10 11
10 18
13 10
15 10
17 10
19 10
21 10
24 10
11 12
13 11
15 11
17 11
19 11
21 11
24 11
13 12
15 12
17 12
19 12
24 12
13 14
13 16
13 22
13 25
13 18
20 13
15 13
17 13
19 13
21 13
24 13
15 14
17 14
21 14
24 14
15 16
15 18
15 26
15 25
15 20
15 17
15 19
15 21
15 24
17 16
21 16
24 16
17 18
17 26
17 19
17 21
17 24
19 18
21 18
24 18
19 20
19 21
19 24
21 20
24 20
21 22
21 25
21 24
22 23
24 22
24 23
24 25
27 0
27 1
27 2
27 3
27 4
27 5
27 6
27 7
27 42
27 41
27 9
27 10
27 13
27 8
27 16
27 22
27 23
27 25
27 26
27 32
27 33
27 36
27 37
27 20
27 28
27 15
27 17
27 43
27 19
27 29
27 21
27 30
27 31
27 24
27 35
27 38
27 39
27 40
27 34
28 0
28 1
28 2
28 3
28 15
28 6
28 7
28 14
28 16
28 25
28 42
28 9
28 5
28 34
28 39
28 41
28 17
28 13
28 43
28 19
28 8
28 29
28 21
28 30
28 31
28 24
28 32
28 33
28 35
28 36
28 37
28 38
28 40
29 43
29 15
29 17
29 19
29 13
29 8
29 9
29 21
29 30
29 31
29 24
29 32
29 1
29 33
29 5
29 34
29 35
29 36
29 37
29 38
29 39
29 40
29 41
29 2
29 42
29 16
29 22
29 10
29 3
29 25
29 11
29 20
29 18
29 12
29 26
29 23
29 14
30 43
30 15
30 17
30 19
30 21
30 13
30 8
30 9
30 24
30 32
30 5
30 35
30 39
30 2
30 42
30 16
30 10
30 3
30 25
30 11
30 18
30 6
30 12
30 7
30 4
30 14
30 31
30 1
30 33
30 36
30 37
30 38
30 40
30 41
30 34
30 20
31 43
31 15
31 17
31 19
31 21
31 13
31 8
31 0
31 1
31 2
31 3
31 4
31 40
31 6
31 7
31 14
31 10
31 11
31 12
31 25
31 26
31 20
31 42
31 9
31 24
31 32
31 33
31 5
31 34
31 35
31 36
31 37
31 38
31 39
31 41
32 43
32 1
32 2
32 3
32 4
32 5
32 6
32 7
32 42
32 41
32 9
32 10
32 13
32 14
32 8
32 16
32 33
32 26
32 25
32 20
32 36
32 37
32 15
32 17
32 19
32 21
32 24
32 35
32 38
32 39
32 40
32 34
33 43
33 0
33 1
33 5
33 6
33 7
33 42
33 41
33 9
33 10
33 11
33 12
33 13
33 8
33 22
33 23
33 18
33 26
33 37
33 20
33 36
33 15
33 17
33 19
33 21
33 24
33 35
33 38
33 39
33 40
33 34
34 43
34 15
34 17
34 19
34 21
34 24
34 35
34 38
34 39
34 40
34 0
34 1
34 42
34 5
34 10
34 11
34 12
34 18
34 22
34 23
34 26
34 25
34 9
34 41
34 13
34 8
34 36
34 37
34 20
35 43
35 15
35 17
35 19
35 21
35 24
35 13
35 8
35 9
35 5
35 39
35 2
35 16
35 22
35 10
35 3
35 25
35 11
35 20
35 18
35 6
35 12
35 26
35 23
35 7
35 4
35 14
35 1
35 36
35 37
35 40
35 41
35 38
35 42
36 43
36 0
36 1
36 2
36 3
36 5
36 42
36 41
36 9
36 10
36 11
36 12
36 13
36 14
36 8
36 16
36 22
36 23
36 25
36 37
36 20
36 15
36 17
36 19
36 21
36 24
36 38
36 39
36 40
37 43
37 0
37 1
37 2
37 3
37 4
37 5
37 6
37 7
37 42
37 41
37 9
37 10
37 11
37 12
37 13
37 14
37 8
37 22
37 25
37 20
37 15
37 17
37 19
37 21
37 24
37 38
37 39
37 40
38 43
38 15
38 17
38 19
38 21
38 24
38 13
38 8
38 9
38 5
38 1
38 39
38 40
38 0
38 41
38 2
38 42
38 16
38 22
38 10
38 3
38 25
38 11
38 20
38 18
38 6
38 23
38 7
38 14
39 43
39 15
39 17
39 19
39 21
39 24
39 0
39 1
39 2
39 3
39 6
39 42
39 5
39 10
39 11
39 12
39 16
39 18
39 26
39 25
39 9
39 41
39 13
39 8
39 40
40 43
40 15
40 17
40 19
40 21
40 24
40 13
40 8
40 1
40 2
40 3
40 4
40 6
40 7
40 16
40 10
40 11
40 18
40 25
40 20
40 42
40 9
40 5
40 41
41 43
41 1
41 2
41 5
41 6
41 7
41 42
41 9
41 22
41 23
41 25
41 13
41 8
41 15
41 17
41 21
41 24
42 43
42 2
42 3
42 5
42 6
42 7
42 14
42 13
42 8
42 15
42 17
42 21
42 24
43 0
43 1
43 2
43 3
43 4
43 5
43 6
43 9
43 10
43 11
43 12
43 13
43 14
43 8
43 22
43 23
43 18
43 26
43 20
43 15
43 17
43 19
43 21
43 24
